nbrTasks = 24;
nbrMachines = 2;
nbrTools = 2;
names = ["Take top","Put top in fixture","Take button","Mount button on top","Take top-button from fixture","Angle top-button","Lift top-button, hold top-button","Lift top-button, support","Turn top-button","Take ring","Mount ring on top-button, hold","Mount ring on top-button, mount","Fixate top-button-ring","Put top-button-ring in top-tray","Change to bottom-grabber tool","Take top-button-ring from top-tray","Take bottom","Put bottom in fixture","Take switch","Mount switch in bottom","Take bottom-switch","Put bottom-switch on table","Mount top-button-ring on bottom-switch","Change to regular-grabber tool"];

duration = [5,10,5,25,5,5,5,5,20,10,260,260,15,5,60,5,5,10,5,15,0,5,15,60];

% Trays
% 1: Top tray
% 2: Button tray
% 3: Ring tray
% 4: Bottom tray
% 5: Switch tray
tray = [1,0,2,0,0,0,0,0,0,3,0,0,0,1,0,1,4,0,5,0,0,0,0,0];

% Fixtures
% 1: Front fixture
fixture = [0,1,0,1,1,1,0,0,0,0,0,0,1,0,0,0,0,1,0,1,1,0,0,0];

% Components
% 1: Top
% 2: Button
% 3: Ring
% 4: Bottom
% 5: Switch
% 6: Top-Button
% 7: Top-Button-Ring
% 8: Bottom-Switch
% 9: Complete
component = [|
1,1,2,1,6,6,6,6,6,3,6,3,7,7,0,7,4,4,5,4,8,8,7,0|
0,0,0,2,0,0,0,0,0,0,0,0,0,0,0,0,0,0,0,5,0,0,8,0|];
nbrComponents = 9;
maxComponentsUsed = 2;

component_created = [0,0,0,6,0,0,0,0,0,0,7,7,0,0,0,0,0,0,0,8,0,0,9,0];

% putting a component
putting = [0,1,0,0,0,0,0,0,0,0,0,0,0,1,0,0,0,1,0,0,0,1,0,0];

% mounting a component
mounting = [0,0,0,1,0,0,0,0,0,0,1,1,0,0,0,0,0,0,0,1,0,0,1,0];

% taking a component
taking = [1,0,1,0,1,0,0,0,0,1,0,0,0,0,0,1,1,0,1,0,1,0,0,0];

% moving a component
moving = [0,0,0,0,0,1,1,1,1,0,0,0,1,0,0,0,0,0,0,0,0,0,0,0];

concurrentTasks = [|
7,8|
11,12|
7,8|
11,12|];
maxConcurrentTasks = 2;
nbrConcurrentGroups = 4;

order = [|
];
maxOrderedLength = 0;
orderedGroups = 0;

resources = [1,1,1,1,1,1,1,1,1,1,1,1,1,1,1,1,1,1,1,1,1,1,1,1];

% Coords fromX,fromY,toX,toY
coords = [|
7,9,7,9|
4,9,4,9|
8,2,8,2|
5,2,5,2|
8,2,8,2|
8,2,8,2|
8,2,8,2|
8,2,7,9|
8,2,7,9|
7,9,7,9|
14,9,14,9|
7,9,7,9|
7,9,7,9|
9,2,9,2|
4,9,4,9|
8,12,8,12|
4,9,4,9|
11,9,11,9|
8,2,8,2|
12,5,12,5|
8,2,8,2|
8,2,8,2|
10,2,10,2|
10,2,10,2|
8,12,8,12|];

% Tools
% 1: tool1
% 2: tool2
tools_needed = [1,1,1,1,1,1,1,0,1,1,1,1,1,1,0,1,2,2,2,2,2,2,1,0];

changes_tool = [|
15,24,15,24|
2,1,2,1|];
tool_changes = 4;

default_tool = [1,1];
